language ESSENCE' 1.0

letting jobs = 102
letting horizon = 807
letting resourcesRenew = 2
letting resourcesNonrenew = 2
letting resourceLimits = [46, 44, 497, 484]
letting successors = [[2, 3, 4, 5, 6, 7, 8, 9, 10, 11, 12, 15, 17, 18, 19, 20, 21, 22, 23, 24, 25, 26, 29, 31, 34], [70, 66, 62, 59, 56, 54, 52, 49, 48, 47, 42, 41, 40, 28, 14], [80, 66, 59, 58, 55, 48, 47, 46, 45, 39, 38, 13], [69, 51, 43, 40, 39, 37, 27, 16], [100, 95, 88, 81, 70, 68, 67, 66, 61, 58, 57, 55, 53, 49, 41, 39, 36, 30], [82, 81, 69, 67, 66, 60, 59, 58, 55, 52, 45, 42, 40, 38, 36, 28], [100, 98, 97, 95, 92, 85, 84, 82, 81, 80, 70, 69, 68, 66, 65, 64, 62, 58, 55, 54, 50, 48, 44], [100, 91, 80, 69, 68, 66, 61, 59, 54, 50, 49, 48, 45, 42, 32], [97, 93, 87, 85, 80, 66, 65, 60, 53, 52, 48, 40, 35, 27], [100, 99, 95, 85, 82, 67, 65, 62, 59, 55, 53, 49, 48, 39, 35], [101, 100, 99, 86, 69, 67, 66, 61, 58, 55, 53, 50, 48, 47, 33], [100, 97, 92, 91, 90, 87, 86, 82, 81, 69, 65, 59, 54, 53, 52, 50, 49, 42], [100, 98, 96, 94, 93, 92, 91, 87, 84, 82, 81, 69, 67, 61, 60, 54, 53, 33], [101, 100, 99, 98, 97, 96, 95, 94, 88, 87, 83, 76, 69, 68, 64, 61, 60, 55, 53, 43], [99, 96, 87, 85, 82, 79, 78, 67, 63, 45, 39, 37], [100, 94, 92, 84, 66, 63, 62, 61, 58, 57, 53, 48, 42, 33], [101, 99, 98, 97, 94, 87, 80, 68, 66, 64, 61, 55, 53, 48, 38], [101, 100, 99, 97, 89, 88, 82, 77, 73, 67, 65, 64, 61, 55, 40], [98, 97, 95, 94, 93, 92, 91, 87, 84, 81, 80, 78, 77, 76, 75, 69, 65, 63, 62, 54], [101, 98, 97, 96, 95, 89, 88, 87, 85, 82, 77, 76, 75, 66, 61, 55, 49], [100, 96, 93, 77, 64, 60, 55, 54, 40], [100, 98, 97, 95, 92, 90, 89, 85, 81, 71, 65, 61, 59, 58, 53, 48], [99, 98, 97, 95, 92, 91, 90, 89, 88, 86, 84, 66, 63, 56, 53], [100, 98, 96, 94, 93, 92, 91, 88, 86, 81, 80, 78, 74, 73, 67, 65, 64, 63], [100, 93, 92, 83, 77, 69, 55, 54, 44], [100, 96, 95, 94, 90, 89, 87, 85, 80, 79, 65, 63, 53], [101, 100, 99, 98, 95, 91, 90, 89, 82, 81, 79, 78, 77, 74, 73, 72, 63], [96, 95, 94, 92, 91, 90, 84, 79, 76, 73, 71, 65, 53], [97, 91, 90, 89, 87, 86, 85, 79, 73, 63, 48], [98, 92, 89, 86, 79, 73, 72, 64, 63, 48], [100, 98, 96, 91, 90, 89, 87, 79, 78, 77, 76, 73, 72, 71, 64], [101, 99, 97, 95, 90, 87, 82, 78, 72, 67, 64, 60], [97, 95, 90, 89, 88, 85, 78, 77, 76, 74, 71, 65, 64], [98, 97, 96, 91, 90, 88, 80, 78, 77, 76, 73, 72, 60], [101, 92, 90, 89, 84, 79, 78, 77, 76, 73, 64, 63], [101, 99, 93, 85, 80, 79, 78, 74, 73, 71, 65, 64], [95, 93, 92, 81, 71, 65, 64, 62], [100, 96, 93, 90, 89, 86, 79, 78, 77, 63], [98, 93, 91, 86, 83, 77, 75, 72, 60], [98, 95, 94, 92, 86, 83, 79, 76, 72], [97, 91, 89, 82, 79, 75, 74, 72, 71], [93, 88, 85, 78, 75, 74, 73, 72], [93, 89, 84, 80, 79, 75, 72, 71], [99, 87, 79, 76, 75, 74, 73, 71], [97, 92, 89, 76, 74, 73, 71], [94, 90, 78, 76, 74, 72, 71], [92, 91, 83, 76, 75, 68], [96, 78, 77, 76, 75, 74], [94, 84, 79, 74, 73, 72], [94, 83, 76, 73, 63], [91, 79, 77, 76, 66], [76, 73, 68, 64], [78, 77, 75, 74, 72], [99, 89, 79, 73, 71], [91, 90, 72, 63], [94, 81, 73, 67], [87, 73, 72, 71], [93, 74, 73], [79, 77, 72], [74, 71], [78, 72], [88, 74], [71], [75], [72], [73], [76], [77], [73], [86], [102], [102], [102], [102], [102], [102], [102], [102], [102], [102], [102], [102], [102], [102], [102], [102], [102], [102], [102], [102], [102], [102], [102], [102], [102], [102], [102], [102], [102], [102], [102], []]
letting durations = [[0], [1, 3, 5], [2, 5, 6], [1, 2, 5], [4, 7, 10], [6, 7, 9], [5, 6, 7], [4, 6, 9], [4, 5, 6], [1, 4, 5], [1, 5, 9], [1, 3, 5], [6, 9, 10], [1, 2, 8], [2, 7, 8], [2, 6, 7], [3, 4, 5], [1, 2, 5], [7, 9, 10], [1, 4, 9], [1, 2, 5], [2, 6, 10], [6, 7, 9], [5, 6, 7], [3, 4, 5], [3, 5, 6], [4, 7, 8], [1, 2, 3], [1, 6, 9], [3, 6, 9], [4, 5, 9], [5, 6, 7], [5, 7, 10], [3, 5, 9], [1, 3, 9], [4, 5, 10], [1, 5, 7], [2, 5, 10], [1, 4, 7], [2, 3, 6], [6, 8, 10], [3, 4, 7], [1, 6, 7], [3, 5, 9], [8, 9, 10], [4, 5, 9], [3, 4, 7], [1, 6, 10], [3, 6, 8], [3, 5, 10], [1, 8, 9], [4, 5, 6], [7, 8, 9], [5, 6, 8], [4, 5, 6], [6, 7, 10], [2, 8, 9], [3, 6, 8], [2, 3, 6], [4, 8, 9], [2, 5, 6], [3, 4, 5], [4, 7, 8], [1, 7, 10], [3, 6, 7], [1, 4, 8], [3, 5, 8], [2, 5, 7], [6, 8, 9], [3, 9, 10], [4, 5, 7], [5, 8, 10], [7, 8, 10], [7, 8, 9], [5, 8, 9], [4, 8, 9], [2, 7, 8], [3, 5, 10], [3, 6, 9], [2, 4, 6], [4, 6, 8], [7, 8, 9], [1, 3, 6], [6, 8, 10], [3, 4, 5], [3, 5, 10], [7, 8, 10], [3, 6, 9], [6, 7, 9], [3, 4, 10], [2, 5, 8], [3, 6, 9], [4, 5, 8], [1, 5, 6], [1, 4, 9], [3, 5, 10], [6, 8, 9], [1, 6, 8], [6, 9, 10], [7, 8, 10], [1, 8, 9], [0]]
letting resourceUsage = [[[0, 0, 0, 0]], [[4, 3, 5, 8], [3, 2, 5, 6], [3, 2, 4, 4]], [[3, 4, 9, 7], [1, 3, 6, 5], [1, 2, 6, 3]], [[3, 1, 3, 8], [3, 1, 2, 7], [3, 1, 1, 5]], [[5, 5, 8, 6], [5, 4, 3, 6], [5, 4, 1, 5]], [[2, 5, 7, 7], [1, 4, 7, 6], [1, 4, 7, 5]], [[5, 1, 3, 5], [3, 1, 2, 4], [2, 1, 2, 1]], [[2, 3, 7, 3], [1, 1, 7, 3], [1, 1, 7, 2]], [[2, 1, 7, 11], [2, 1, 7, 10], [2, 1, 7, 9]], [[4, 2, 8, 9], [3, 1, 8, 7], [3, 1, 7, 7]], [[3, 4, 6, 9], [2, 4, 6, 7], [2, 4, 4, 6]], [[5, 4, 7, 7], [4, 4, 4, 4], [4, 4, 4, 3]], [[3, 4, 9, 6], [2, 3, 4, 5], [2, 3, 4, 3]], [[3, 4, 8, 7], [2, 4, 7, 6], [2, 4, 4, 6]], [[3, 3, 3, 5], [2, 2, 3, 4], [1, 2, 3, 4]], [[3, 2, 6, 9], [3, 2, 6, 8], [2, 2, 6, 7]], [[2, 4, 6, 7], [1, 3, 6, 7], [1, 2, 6, 7]], [[4, 4, 10, 8], [4, 3, 4, 7], [4, 3, 3, 7]], [[4, 1, 3, 9], [2, 1, 2, 7], [1, 1, 2, 7]], [[4, 3, 5, 4], [3, 3, 5, 2], [3, 3, 3, 1]], [[4, 4, 9, 9], [4, 3, 6, 7], [4, 1, 6, 6]], [[5, 5, 9, 8], [3, 4, 9, 5], [3, 4, 9, 3]], [[4, 5, 8, 7], [2, 4, 6, 5], [2, 4, 6, 2]], [[4, 5, 9, 6], [4, 2, 9, 5], [4, 2, 7, 5]], [[3, 4, 8, 5], [3, 3, 6, 5], [1, 3, 5, 5]], [[3, 1, 4, 8], [3, 1, 3, 3], [2, 1, 3, 2]], [[2, 2, 3, 7], [2, 1, 3, 7], [2, 1, 3, 5]], [[4, 1, 7, 1], [3, 1, 5, 1], [1, 1, 3, 1]], [[2, 3, 3, 10], [2, 1, 2, 10], [2, 1, 1, 10]], [[4, 2, 8, 10], [3, 2, 7, 8], [2, 1, 7, 7]], [[5, 4, 7, 8], [3, 3, 5, 5], [2, 3, 3, 3]], [[4, 3, 7, 7], [3, 2, 7, 5], [2, 1, 7, 5]], [[1, 1, 7, 8], [1, 1, 6, 7], [1, 1, 6, 5]], [[3, 5, 8, 4], [3, 5, 7, 3], [3, 5, 6, 2]], [[3, 3, 5, 2], [1, 2, 4, 2], [1, 1, 2, 2]], [[2, 4, 5, 4], [1, 2, 2, 4], [1, 2, 2, 2]], [[3, 5, 8, 7], [2, 3, 8, 6], [2, 3, 8, 2]], [[5, 3, 4, 9], [5, 3, 3, 8], [5, 2, 3, 7]], [[3, 3, 7, 8], [2, 3, 7, 7], [2, 2, 7, 7]], [[5, 2, 7, 10], [3, 2, 6, 4], [3, 2, 4, 3]], [[3, 1, 8, 7], [3, 1, 7, 6], [2, 1, 7, 2]], [[4, 4, 4, 8], [4, 4, 4, 5], [4, 4, 2, 1]], [[3, 3, 2, 9], [2, 3, 1, 9], [2, 3, 1, 8]], [[3, 5, 10, 4], [2, 3, 7, 3], [2, 3, 7, 2]], [[2, 4, 1, 7], [2, 2, 1, 7], [2, 2, 1, 5]], [[2, 3, 3, 6], [2, 3, 2, 4], [2, 2, 2, 3]], [[5, 4, 8, 4], [4, 4, 6, 3], [3, 4, 6, 3]], [[1, 4, 7, 8], [1, 3, 7, 6], [1, 3, 6, 4]], [[4, 5, 4, 5], [4, 3, 4, 4], [4, 3, 2, 4]], [[4, 2, 5, 8], [3, 1, 5, 5], [2, 1, 2, 2]], [[1, 2, 8, 8], [1, 1, 7, 7], [1, 1, 4, 6]], [[4, 3, 6, 6], [4, 2, 5, 6], [4, 2, 3, 3]], [[2, 5, 9, 10], [2, 5, 6, 10], [2, 5, 4, 10]], [[5, 4, 5, 6], [3, 3, 5, 6], [3, 3, 5, 5]], [[3, 5, 8, 7], [3, 3, 7, 4], [3, 3, 6, 2]], [[1, 5, 4, 4], [1, 3, 2, 4], [1, 2, 2, 4]], [[2, 5, 9, 8], [2, 4, 6, 6], [1, 2, 6, 2]], [[3, 4, 8, 8], [3, 4, 8, 7], [3, 4, 8, 6]], [[3, 4, 10, 4], [2, 2, 8, 3], [2, 2, 5, 3]], [[1, 4, 9, 5], [1, 3, 8, 4], [1, 3, 6, 4]], [[3, 2, 7, 6], [2, 1, 5, 3], [2, 1, 2, 3]], [[2, 3, 6, 6], [2, 3, 4, 6], [2, 3, 3, 2]], [[2, 4, 4, 6], [1, 2, 4, 3], [1, 1, 4, 3]], [[5, 3, 7, 9], [3, 2, 3, 5], [3, 1, 1, 3]], [[5, 3, 8, 5], [2, 3, 6, 3], [1, 2, 2, 2]], [[3, 2, 8, 4], [2, 2, 7, 3], [2, 2, 6, 3]], [[1, 3, 3, 9], [1, 2, 2, 4], [1, 2, 1, 3]], [[4, 3, 7, 5], [3, 2, 5, 4], [2, 2, 5, 4]], [[5, 3, 8, 8], [4, 2, 8, 8], [4, 1, 7, 8]], [[3, 1, 10, 8], [2, 1, 6, 6], [1, 1, 5, 6]], [[4, 5, 10, 4], [4, 3, 7, 4], [4, 3, 7, 3]], [[3, 1, 6, 2], [3, 1, 4, 2], [3, 1, 2, 2]], [[4, 3, 9, 6], [4, 2, 9, 5], [4, 1, 9, 4]], [[3, 3, 7, 7], [2, 2, 5, 7], [2, 2, 5, 6]], [[3, 3, 9, 3], [3, 2, 8, 3], [2, 1, 8, 3]], [[4, 4, 9, 5], [4, 3, 9, 5], [3, 3, 9, 5]], [[3, 1, 2, 4], [2, 1, 2, 3], [2, 1, 2, 2]], [[2, 4, 7, 3], [1, 2, 4, 2], [1, 2, 2, 1]], [[4, 3, 5, 7], [3, 1, 3, 5], [3, 1, 1, 5]], [[5, 1, 3, 3], [3, 1, 2, 3], [1, 1, 2, 3]], [[2, 5, 8, 9], [1, 4, 6, 9], [1, 4, 1, 7]], [[3, 1, 9, 8], [3, 1, 8, 6], [3, 1, 7, 6]], [[3, 1, 10, 8], [2, 1, 8, 8], [1, 1, 8, 8]], [[5, 2, 6, 7], [4, 2, 5, 6], [4, 2, 4, 6]], [[5, 2, 5, 8], [4, 1, 5, 5], [4, 1, 3, 5]], [[3, 2, 8, 5], [2, 2, 7, 4], [1, 2, 6, 4]], [[4, 3, 5, 7], [3, 3, 5, 6], [3, 2, 5, 5]], [[3, 3, 4, 8], [2, 3, 4, 6], [2, 2, 4, 2]], [[2, 4, 7, 8], [1, 3, 5, 4], [1, 2, 3, 2]], [[4, 3, 6, 6], [4, 3, 4, 6], [3, 2, 3, 2]], [[4, 3, 2, 7], [2, 3, 2, 6], [1, 3, 2, 5]], [[4, 3, 7, 8], [4, 3, 3, 6], [3, 1, 2, 3]], [[4, 4, 4, 4], [3, 4, 3, 4], [2, 3, 2, 3]], [[3, 5, 8, 4], [2, 4, 7, 4], [1, 4, 6, 4]], [[4, 3, 7, 9], [4, 3, 7, 7], [3, 1, 7, 6]], [[2, 5, 8, 6], [1, 3, 7, 6], [1, 2, 7, 6]], [[5, 4, 8, 1], [3, 3, 6, 1], [3, 3, 4, 1]], [[4, 3, 8, 10], [3, 1, 7, 8], [1, 1, 7, 8]], [[1, 3, 8, 5], [1, 3, 5, 5], [1, 1, 4, 5]], [[3, 3, 7, 7], [3, 2, 6, 7], [3, 2, 6, 6]], [[3, 3, 8, 3], [3, 2, 7, 3], [2, 1, 6, 2]], [[0, 0, 0, 0]]]
